(declare-const a Real)
(declare-const b Real)
(declare-const c Real)
(assert (= (+ a b c) 3))
(assert (> a 0))
(assert (> b 0))
(assert (> c 0))
(assert (not (<= (+ (pow (* (+ (pow b 6) (pow b 10)) (+ (* (pow a 6) (pow c 2)) (* (pow a 10) (pow c 2)))) (/ 1 2)) (* a (pow (+ (* 2 (pow b 6) (pow c 10)) (* 2 (pow b 10) (pow c 6))) (/ 1 2))) (* b (pow (+ (* 2 (pow a 6) (pow c 10)) (* 2 (pow a 10) (pow c 6))) (/ 1 2))) (* -2 a (pow b 8)) (* -2 b (pow c 8)) (* -2 c (pow a 8))) 0)))
(check-sat)
(get-model)
(exit)